words_easy_train/words_719_SAT.qaiger
aag 28 16 0 1 12
2
14
16
18
22
30
28
10
32
20
26
24
4
8
12
6
57
34 29 17
36 19 9
38 37 34
40 33 31
42 40 11
44 42 38
46 23 21
48 27 25
50 48 46
52 15 13
54 52 50
56 54 44
i0 1 x1[0]
i1 1 x1[6]
i2 1 x1[7]
i3 2 y2[0]
i4 2 y2[2]
i5 2 y2[6]
i6 2 y2[5]
i7 1 x1[4]
i8 2 y2[7]
i9 2 y2[1]
i10 2 y2[4]
i11 2 y2[3]
i12 1 x1[1]
i13 1 x1[3]
i14 1 x1[5]
i15 1 x1[2]
o0 bool[0]
c
simplified
  !=
    or
      >> 3
        1 x1
      2 y2
    1
