words_easy_train/words_719_SAT.qaiger.qdimacs
p cnf 28 37
a 1 2 3 4 5 6 7 8 0
e 9 10 11 12 13 14 15 16 17 18 19 20 21 22 23 24 25 26 27 28 0
14 8 17 0
-14 -17 0
-8 -17 0
9 4 18 0
-9 -18 0
-4 -18 0
18 -17 19 0
-18 -19 0
17 -19 0
16 15 20 0
-16 -20 0
-15 -20 0
-20 5 21 0
20 -21 0
-5 -21 0
-21 -19 22 0
21 -22 0
19 -22 0
11 10 23 0
-11 -23 0
-10 -23 0
13 12 24 0
-13 -24 0
-12 -24 0
-24 -23 25 0
24 -25 0
23 -25 0
7 6 26 0
-7 -26 0
-6 -26 0
-26 -25 27 0
26 -27 0
25 -27 0
-27 -22 28 0
27 -28 0
22 -28 0
-28 0
